NAME: PointSet_Angle_35_4
TYPE: TSP
COMMENT: Points chosen discrete uniformly at random out of ${0, \ldots, 500}^2$.
DIMENSION: 35
EDGE_WEIGHT_TYPE: EUC_2D
NODE_COORD_SECTION
1 125 470
2 110 497
3 127 478
4 128 381
5 46 392
6 140 248
7 158 249
8 240 77
9 161 464
10 320 430
11 166 213
12 241 363
13 49 422
14 379 353
15 248 205
16 452 373
17 175 308
18 115 48
19 285 491
20 430 78
21 382 69
22 326 286
23 319 312
24 364 226
25 22 183
26 155 188
27 143 396
28 297 439
29 63 176
30 291 311
31 127 242
32 430 48
33 296 291
34 97 80
35 281 26
EOF
